NAME : instances/clustered-mixed-tsp/instance-24.tsp
COMMENT : No Comment
TYPE : TSP
DIMENSION: 53
EDGE_WEIGHT_TYPE : EUC_2D
NODE_COORD_SECTION
1 688 389 
2 -151 1076 
3 375 1041 
4 162 191 
5 427 1119 
6 25 416 
7 391 581 
8 183 256 
9 770 268 
10 313 386 
11 700 1132 
12 493 351 
13 259 325 
14 545 610 
15 292 74 
16 391 885 
17 466 950 
18 116 195 
19 597 662 
20 435 295 
21 350 130 
22 66 651 
23 513 113 
24 780 1010 
25 718 268 
26 259 1065 
27 728 685 
28 623 285 
29 441 623 
30 1126 268 
31 814 203 
32 274 503 
33 822 411 
34 194 117 
35 441 454 
36 187 1011 
37 1126 190 
38 310 1106 
39 796 398 
40 635 703 
41 246 546 
42 402 182 
43 653 203 
44 454 285 
45 649 207 
46 227 256 
47 402 610 
48 135 1063 
49 90 169 
50 456 638 
51 913 502 
52 -172 155 
53 461 139 
EOF
